1 100 675
4 0 2 2 1 4 5 0 1 1
4
4 3 9 1
0 35.0 35.0 0.0 0.0 0 230
2 41.0 49.0 10.0 10.0 73 204 17 0 0 0 0 1 1 0 0 0 0
3 35.0 17.0 10.0 7.0 18 147 30 0 0 0 0 1 0 0 0 0 0
4 55.0 45.0 10.0 13.0 76 165 93 0 0 0 1 0 0 0 0 0 0
5 55.0 20.0 10.0 19.0 73 195 31 0 1 1 0 1 0 0 0 1 1
6 15.0 30.0 10.0 26.0 20 167 57 0 0 0 0 0 1 0 0 0 0
7 25.0 30.0 10.0 3.0 49 158 94 0 0 1 0 0 1 0 0 0 0
8 20.0 50.0 10.0 5.0 36 135 52 0 0 0 0 0 0 0 0 1 0
9 10.0 43.0 10.0 9.0 50 149 70 0 0 0 0 0 0 1 1 0 1
10 55.0 60.0 10.0 16.0 47 156 45 0 1 0 0 0 0 0 0 0 0
11 30.0 60.0 10.0 16.0 85 172 24 0 0 0 0 0 0 1 0 0 0
12 20.0 65.0 10.0 12.0 33 152 34 1 0 0 0 0 0 0 0 1 1
13 50.0 35.0 10.0 19.0 15 133 46 0 1 0 1 0 0 0 0 0 1
14 30.0 25.0 10.0 23.0 79 208 38 0 0 1 0 0 0 0 0 1 0
15 15.0 10.0 10.0 20.0 32 187 23 0 0 0 1 0 1 1 0 1 0
16 30.0 5.0 10.0 8.0 30 152 16 0 0 0 0 0 0 0 1 0 0
17 10.0 20.0 10.0 19.0 29 139 61 0 0 0 1 1 0 1 0 0 0
18 5.0 30.0 10.0 2.0 60 189 89 1 0 0 0 0 1 1 0 0 1
19 20.0 40.0 10.0 12.0 47 136 65 0 0 1 0 0 0 0 1 0 0
20 15.0 60.0 10.0 17.0 32 146 64 0 1 0 0 1 1 0 0 0 0
21 45.0 65.0 10.0 9.0 79 182 40 0 0 1 0 0 1 0 0 0 1
22 45.0 20.0 10.0 11.0 18 136 97 1 0 0 1 0 1 0 0 0 0
23 45.0 10.0 10.0 18.0 50 153 97 0 0 0 0 0 1 0 0 0 0
24 55.0 5.0 10.0 29.0 36 155 57 0 0 0 0 0 1 0 0 1 0
25 65.0 35.0 10.0 3.0 58 190 32 0 1 0 0 0 0 0 0 1 0
26 65.0 20.0 10.0 6.0 56 186 42 0 0 0 0 0 1 0 0 0 0
27 45.0 30.0 10.0 17.0 87 186 27 0 0 1 1 1 0 0 0 0 1
28 35.0 40.0 10.0 16.0 5 140 76 0 0 0 0 0 0 0 0 1 0
29 41.0 37.0 10.0 16.0 6 136 0 0 0 0 0 0 1 0 0 0 0
30 64.0 42.0 10.0 9.0 29 150 89 0 0 0 0 0 0 0 0 0 1
31 40.0 60.0 10.0 21.0 25 132 82 0 0 0 0 0 0 0 0 0 1
32 31.0 52.0 10.0 27.0 17 138 36 1 1 1 0 1 0 0 0 1 0
33 35.0 69.0 10.0 23.0 67 186 89 0 1 0 1 0 1 0 0 1 0
34 53.0 52.0 10.0 11.0 24 161 22 0 1 1 1 0 0 1 0 1 1
35 65.0 55.0 10.0 14.0 70 173 22 0 0 0 0 1 0 1 0 1 0
36 63.0 65.0 10.0 8.0 54 178 40 0 0 0 0 1 0 0 1 0 0
37 2.0 60.0 10.0 5.0 41 178 89 0 1 1 1 0 1 1 0 0 0
38 20.0 20.0 10.0 8.0 87 190 76 0 0 0 0 0 1 0 0 0 0
39 5.0 5.0 10.0 16.0 42 153 50 0 0 0 0 0 1 0 0 0 0
40 60.0 12.0 10.0 31.0 33 186 98 0 0 0 0 0 0 1 0 0 0
41 40.0 25.0 10.0 9.0 40 139 13 0 0 0 0 0 0 1 0 0 0
42 42.0 7.0 10.0 5.0 43 160 67 0 0 1 0 0 0 0 0 0 0
43 24.0 12.0 10.0 5.0 25 158 86 0 0 0 1 0 0 0 0 0 0
44 23.0 3.0 10.0 7.0 82 185 16 0 0 0 1 0 1 0 1 0 0
45 11.0 14.0 10.0 18.0 31 144 30 1 0 0 0 0 0 0 0 1 0
46 6.0 38.0 10.0 16.0 29 169 88 0 0 0 0 0 1 0 0 0 0
47 2.0 48.0 10.0 1.0 63 180 96 0 0 0 0 0 1 0 0 0 0
48 8.0 56.0 10.0 27.0 34 176 51 0 0 0 0 0 0 1 0 0 0
49 13.0 52.0 10.0 36.0 65 192 15 0 0 0 0 1 1 0 0 0 0
50 6.0 68.0 10.0 30.0 73 152 2 0 0 0 0 0 1 0 1 0 0
51 47.0 47.0 10.0 13.0 75 182 38 0 1 1 0 0 1 0 0 0 0
52 49.0 58.0 10.0 10.0 36 149 3 0 0 1 0 0 0 0 1 0 0
53 27.0 43.0 10.0 9.0 11 133 78 1 0 0 1 0 0 0 0 0 0
54 37.0 31.0 10.0 14.0 51 148 12 0 0 0 0 0 1 0 0 0 0
55 57.0 29.0 10.0 18.0 90 197 48 0 0 0 0 1 0 0 0 0 0
56 63.0 23.0 10.0 2.0 69 189 81 1 0 0 0 1 0 0 1 0 0
57 53.0 12.0 10.0 6.0 76 190 92 1 0 0 0 0 0 0 0 0 1
58 32.0 12.0 10.0 7.0 48 163 9 0 0 0 0 1 0 0 0 1 1
59 36.0 26.0 10.0 18.0 84 210 37 1 0 0 0 0 0 0 0 0 0
60 21.0 24.0 10.0 28.0 17 183 98 0 0 1 0 0 0 0 0 0 0
61 17.0 34.0 10.0 3.0 70 201 15 0 0 0 1 1 0 1 0 0 1
62 12.0 24.0 10.0 13.0 29 132 59 1 0 0 0 0 1 0 0 0 0
63 24.0 58.0 10.0 19.0 25 154 9 0 0 1 1 0 1 0 0 0 0
64 27.0 69.0 10.0 10.0 34 172 41 1 1 0 0 0 1 0 0 0 0
65 15.0 77.0 10.0 9.0 46 165 55 0 1 1 1 0 0 0 0 0 0
66 62.0 77.0 10.0 20.0 49 170 21 0 0 0 0 0 0 0 0 1 0
67 49.0 73.0 10.0 25.0 68 179 13 0 0 0 0 0 0 0 0 1 0
68 67.0 5.0 10.0 25.0 43 156 41 1 0 1 0 0 0 0 0 0 0
69 56.0 39.0 10.0 36.0 80 198 29 0 1 0 0 0 0 0 0 1 0
70 37.0 47.0 10.0 6.0 12 137 28 0 1 0 0 0 0 0 0 0 0
71 37.0 56.0 10.0 5.0 48 198 23 0 1 0 1 0 0 0 1 1 0
72 57.0 68.0 10.0 15.0 39 148 25 0 0 0 0 1 0 0 1 0 0
73 47.0 16.0 10.0 25.0 22 170 20 0 0 0 0 0 1 0 0 0 0
74 44.0 17.0 10.0 9.0 30 135 52 0 0 0 0 0 1 0 0 0 0
75 46.0 13.0 10.0 8.0 74 195 99 0 0 1 0 0 0 0 0 0 0
76 49.0 11.0 10.0 18.0 27 141 11 1 0 0 0 0 0 0 0 0 0
77 49.0 42.0 10.0 13.0 27 128 13 0 0 0 0 0 0 1 1 0 0
78 53.0 43.0 10.0 14.0 72 200 28 0 0 0 0 0 0 1 0 0 1
79 61.0 52.0 10.0 3.0 42 159 91 0 0 0 0 1 0 0 0 0 0
80 57.0 48.0 10.0 23.0 47 146 24 0 0 0 1 0 0 0 0 0 0
81 56.0 37.0 10.0 6.0 73 198 78 1 0 0 1 1 0 0 0 1 0
82 55.0 54.0 10.0 26.0 57 140 15 0 1 0 0 0 0 1 0 0 0
83 15.0 47.0 10.0 16.0 23 146 40 1 0 0 0 0 1 1 1 0 0
84 14.0 37.0 10.0 11.0 21 157 85 0 0 0 0 0 0 0 0 1 0
85 11.0 31.0 10.0 7.0 57 154 51 0 0 0 0 0 0 1 1 0 0
86 16.0 22.0 10.0 41.0 44 147 95 1 0 0 1 0 0 1 0 0 0
87 4.0 18.0 10.0 35.0 49 148 15 1 0 0 0 0 0 1 0 0 0
88 28.0 18.0 10.0 26.0 61 134 0 0 0 0 0 0 1 0 0 0 0
89 26.0 52.0 10.0 9.0 21 136 7 0 0 0 0 0 1 0 0 0 0
90 26.0 35.0 10.0 15.0 68 211 84 0 0 0 0 0 1 0 0 0 0
91 31.0 67.0 10.0 3.0 46 153 40 0 0 0 0 0 0 1 0 1 0
92 15.0 19.0 10.0 1.0 70 194 7 0 0 0 0 0 0 1 0 0 0
93 22.0 22.0 10.0 2.0 18 159 58 0 0 0 0 0 1 0 0 0 0
94 18.0 24.0 10.0 22.0 60 199 79 0 0 0 0 0 1 0 0 0 0
95 26.0 27.0 10.0 27.0 58 151 81 0 0 0 0 0 1 1 0 0 1
96 25.0 24.0 10.0 20.0 14 143 55 0 0 0 0 0 1 1 0 0 0
97 22.0 27.0 10.0 11.0 89 190 96 0 0 1 0 0 1 1 0 0 0
98 25.0 21.0 10.0 12.0 92 183 57 0 1 0 0 0 0 0 0 0 0
99 19.0 21.0 10.0 10.0 21 142 91 0 0 0 0 1 0 0 0 0 0
100 20.0 26.0 10.0 9.0 33 142 74 0 0 0 1 0 0 0 0 0 0
101 18.0 18.0 10.0 17.0 51 195 41 0 0 1 0 0 0 1 0 0 0